
Gurobi 8.1.1 (win64, Python) logging started 06/10/19 09:47:07

Academic license - for non-commercial use only
Warning: Gurobi version mismatch between Python 8.1.0 and C library 8.1.1
Optimize a model with 15283 rows, 7680 columns and 50421 nonzeros
Variable types: 1920 continuous, 5760 integer (5760 binary)
Coefficient statistics:
  Matrix range     [1e+00, 4e+02]
  Objective range  [2e+01, 5e+03]
  Bounds range     [1e+00, 1e+00]
  RHS range        [1e+00, 6e+02]
Found heuristic solution: objective 59628.224800
Presolve removed 15283 rows and 7680 columns
Presolve time: 0.17s
Presolve: All rows and columns removed

Explored 0 nodes (0 simplex iterations) in 0.20 seconds
Thread count was 1 (of 4 available processors)

Solution count 1: 59628.2 

Optimal solution found (tolerance 1.00e-04)
Best objective 5.962822480000e+04, best bound 5.962822480000e+04, gap 0.0000%
Optimize a model with 15283 rows, 7680 columns and 50421 nonzeros
Variable types: 1920 continuous, 5760 integer (5760 binary)
Coefficient statistics:
  Matrix range     [1e+00, 4e+02]
  Objective range  [2e+01, 5e+03]
  Bounds range     [1e+00, 1e+00]
  RHS range        [1e+00, 6e+02]

Loaded MIP start with objective 1e+100

Presolve removed 14756 rows and 7150 columns
Presolve time: 0.14s
Presolved: 527 rows, 530 columns, 5159 nonzeros
Variable types: 0 continuous, 530 integer (530 binary)

Root relaxation: cutoff, 0 iterations, 0.00 seconds

Explored 0 nodes (0 simplex iterations) in 0.17 seconds
Thread count was 4 (of 4 available processors)

Solution count 1: 59628.2 

Optimal solution found (tolerance 1.00e-04)
Best objective 5.962822480000e+04, best bound 5.962822480000e+04, gap 0.0000%
Optimize a model with 15283 rows, 7680 columns and 50421 nonzeros
Variable types: 1920 continuous, 5760 integer (5760 binary)
Coefficient statistics:
  Matrix range     [1e+00, 4e+02]
  Objective range  [2e+01, 5e+03]
  Bounds range     [1e+00, 1e+00]
  RHS range        [1e+00, 6e+02]
Found heuristic solution: objective 59628.224800
Presolve removed 15283 rows and 7680 columns
Presolve time: 0.16s
Presolve: All rows and columns removed

Explored 0 nodes (0 simplex iterations) in 0.19 seconds
Thread count was 1 (of 4 available processors)

Solution count 1: 59628.2 

Optimal solution found (tolerance 1.00e-04)
Best objective 5.962822480000e+04, best bound 5.962822480000e+04, gap 0.0000%
Optimize a model with 15283 rows, 7680 columns and 50421 nonzeros
Variable types: 1920 continuous, 5760 integer (5760 binary)
Coefficient statistics:
  Matrix range     [1e+00, 4e+02]
  Objective range  [2e+01, 5e+03]
  Bounds range     [1e+00, 1e+00]
  RHS range        [1e+00, 6e+02]
Found heuristic solution: objective 59628.224800
Presolve removed 15283 rows and 7680 columns
Presolve time: 0.14s
Presolve: All rows and columns removed

Explored 0 nodes (0 simplex iterations) in 0.17 seconds
Thread count was 1 (of 4 available processors)

Solution count 1: 59628.2 

Optimal solution found (tolerance 1.00e-04)
Best objective 5.962822480000e+04, best bound 5.962822480000e+04, gap 0.0000%
Optimize a model with 15263 rows, 7680 columns and 50304 nonzeros
Variable types: 1920 continuous, 5760 integer (5760 binary)
Coefficient statistics:
  Matrix range     [1e+00, 4e+02]
  Objective range  [2e+01, 5e+03]
  Bounds range     [1e+00, 1e+00]
  RHS range        [1e+00, 6e+02]
Found heuristic solution: objective 59628.224800
Presolve removed 15263 rows and 7680 columns
Presolve time: 0.13s
Presolve: All rows and columns removed

Explored 0 nodes (0 simplex iterations) in 0.14 seconds
Thread count was 1 (of 4 available processors)

Solution count 1: 59628.2 

Optimal solution found (tolerance 1.00e-04)
Best objective 5.962822480000e+04, best bound 5.962822480000e+04, gap 0.0000%
Optimize a model with 15475 rows, 7680 columns and 52341 nonzeros
Variable types: 1920 continuous, 5760 integer (5760 binary)
Coefficient statistics:
  Matrix range     [1e+00, 4e+02]
  Objective range  [2e+01, 5e+03]
  Bounds range     [1e+00, 1e+00]
  RHS range        [1e+00, 1e+03]
Presolve removed 4563 rows and 1578 columns
Presolve time: 0.08s
Presolved: 10912 rows, 6102 columns, 44785 nonzeros
Variable types: 1918 continuous, 4184 integer (4184 binary)
Found heuristic solution: objective 1.422235e+07

Root relaxation: objective 1.418042e+07, 2105 iterations, 0.02 seconds

    Nodes    |    Current Node    |     Objective Bounds      |     Work
 Expl Unexpl |  Obj  Depth IntInf | Incumbent    BestBd   Gap | It/Node Time

     0     0 1.4180e+07    0  413 1.4222e+07 1.4180e+07  0.29%     -    0s
H    0     0                    1.421973e+07 1.4180e+07  0.28%     -    0s
     0     0 1.4212e+07    0   73 1.4220e+07 1.4212e+07  0.05%     -    0s
H    0     0                    1.421817e+07 1.4212e+07  0.04%     -    0s
     0     0 1.4212e+07    0   55 1.4218e+07 1.4212e+07  0.04%     -    0s
*    0     0               0    1.421308e+07 1.4213e+07  0.00%     -    0s

Cutting planes:
  Gomory: 3
  Cover: 227
  Implied bound: 242
  Clique: 107
  MIR: 49
  StrongCG: 17
  Flow cover: 105
  GUB cover: 2

Explored 1 nodes (2659 simplex iterations) in 0.51 seconds
Thread count was 4 (of 4 available processors)

Solution count 4: 1.42131e+07 1.42182e+07 1.42197e+07 1.42224e+07 

Optimal solution found (tolerance 1.00e-04)
Best objective 1.421308206390e+07, best bound 1.421308206390e+07, gap 0.0000%
Optimize a model with 15475 rows, 7680 columns and 52341 nonzeros
Variable types: 1920 continuous, 5760 integer (5760 binary)
Coefficient statistics:
  Matrix range     [1e+00, 4e+02]
  Objective range  [2e+01, 5e+03]
  Bounds range     [1e+00, 1e+00]
  RHS range        [1e+00, 1e+03]
Presolve removed 4563 rows and 1578 columns
Presolve time: 0.08s
Presolved: 10912 rows, 6102 columns, 44785 nonzeros
Variable types: 1918 continuous, 4184 integer (4184 binary)
Found heuristic solution: objective 1.422235e+07

Root relaxation: objective 1.418042e+07, 2105 iterations, 0.02 seconds

    Nodes    |    Current Node    |     Objective Bounds      |     Work
 Expl Unexpl |  Obj  Depth IntInf | Incumbent    BestBd   Gap | It/Node Time

     0     0 1.4180e+07    0  413 1.4222e+07 1.4180e+07  0.29%     -    0s
H    0     0                    1.421973e+07 1.4180e+07  0.28%     -    0s
     0     0 1.4212e+07    0   73 1.4220e+07 1.4212e+07  0.05%     -    0s
H    0     0                    1.421817e+07 1.4212e+07  0.04%     -    0s
     0     0 1.4212e+07    0   55 1.4218e+07 1.4212e+07  0.04%     -    0s
*    0     0               0    1.421308e+07 1.4213e+07  0.00%     -    0s

Cutting planes:
  Gomory: 3
  Cover: 227
  Implied bound: 242
  Clique: 107
  MIR: 49
  StrongCG: 17
  Flow cover: 105
  GUB cover: 2

Explored 1 nodes (2659 simplex iterations) in 0.53 seconds
Thread count was 4 (of 4 available processors)

Solution count 4: 1.42131e+07 1.42182e+07 1.42197e+07 1.42224e+07 

Optimal solution found (tolerance 1.00e-04)
Best objective 1.421308206390e+07, best bound 1.421308206390e+07, gap 0.0000%
Optimize a model with 13 rows, 12 columns and 45 nonzeros
Coefficient statistics:
  Matrix range     [5e-01, 1e+01]
  Objective range  [1e+00, 4e+01]
  Bounds range     [0e+00, 0e+00]
  RHS range        [1e+03, 1e+04]
Presolve removed 4 rows and 3 columns
Presolve time: 0.02s
Presolved: 9 rows, 9 columns, 33 nonzeros

Iteration    Objective       Primal Inf.    Dual Inf.      Time
       0    4.0320000e+05   1.781250e+03   0.000000e+00      0s
      10    2.8775000e+05   0.000000e+00   0.000000e+00      0s

Solved in 10 iterations and 0.02 seconds
Optimal objective  2.877500000e+05

Gurobi 8.1.1 (win64, Python) logging started 06/10/19 13:27:19

Academic license - for non-commercial use only
Warning: Gurobi version mismatch between Python 8.1.0 and C library 8.1.1
Optimize a model with 13 rows, 12 columns and 45 nonzeros
Coefficient statistics:
  Matrix range     [5e-01, 1e+01]
  Objective range  [1e+00, 4e+01]
  Bounds range     [0e+00, 0e+00]
  RHS range        [1e+03, 1e+04]
Presolve removed 4 rows and 3 columns
Presolve time: 0.01s
Presolved: 9 rows, 9 columns, 33 nonzeros

Iteration    Objective       Primal Inf.    Dual Inf.      Time
       0    4.0320000e+05   1.781250e+03   0.000000e+00      0s
      10    2.8775000e+05   0.000000e+00   0.000000e+00      0s

Solved in 10 iterations and 0.01 seconds
Optimal objective  2.877500000e+05

Gurobi 8.1.1 (win64, Python) logging started 06/10/19 13:32:57

Academic license - for non-commercial use only
Warning: Gurobi version mismatch between Python 8.1.0 and C library 8.1.1
Optimize a model with 15475 rows, 7680 columns and 52341 nonzeros
Variable types: 1920 continuous, 5760 integer (5760 binary)
Coefficient statistics:
  Matrix range     [1e+00, 4e+02]
  Objective range  [2e+01, 5e+03]
  Bounds range     [1e+00, 1e+00]
  RHS range        [1e+00, 1e+03]
Presolve removed 4563 rows and 1578 columns
Presolve time: 0.10s
Presolved: 10912 rows, 6102 columns, 44785 nonzeros
Variable types: 1918 continuous, 4184 integer (4184 binary)
Found heuristic solution: objective 1.422235e+07

Root relaxation: objective 1.418042e+07, 2105 iterations, 0.02 seconds

    Nodes    |    Current Node    |     Objective Bounds      |     Work
 Expl Unexpl |  Obj  Depth IntInf | Incumbent    BestBd   Gap | It/Node Time

     0     0 1.4180e+07    0  413 1.4222e+07 1.4180e+07  0.29%     -    0s
H    0     0                    1.421973e+07 1.4180e+07  0.28%     -    0s
     0     0 1.4212e+07    0   73 1.4220e+07 1.4212e+07  0.05%     -    0s
H    0     0                    1.421817e+07 1.4212e+07  0.04%     -    0s
     0     0 1.4212e+07    0   55 1.4218e+07 1.4212e+07  0.04%     -    0s
*    0     0               0    1.421308e+07 1.4213e+07  0.00%     -    0s

Cutting planes:
  Gomory: 3
  Cover: 227
  Implied bound: 242
  Clique: 107
  MIR: 49
  StrongCG: 17
  Flow cover: 105
  GUB cover: 2

Explored 1 nodes (2659 simplex iterations) in 0.53 seconds
Thread count was 4 (of 4 available processors)

Solution count 4: 1.42131e+07 1.42182e+07 1.42197e+07 1.42224e+07 

Optimal solution found (tolerance 1.00e-04)
Best objective 1.421308206390e+07, best bound 1.421308206390e+07, gap 0.0000%
Optimize a model with 13 rows, 12 columns and 45 nonzeros
Coefficient statistics:
  Matrix range     [5e-01, 1e+01]
  Objective range  [1e+00, 4e+01]
  Bounds range     [0e+00, 0e+00]
  RHS range        [1e+03, 1e+04]
Presolve removed 4 rows and 3 columns
Presolve time: 0.00s
Presolved: 9 rows, 9 columns, 33 nonzeros

Iteration    Objective       Primal Inf.    Dual Inf.      Time
       0    4.0320000e+05   1.781250e+03   0.000000e+00      0s
      10    2.8775000e+05   0.000000e+00   0.000000e+00      0s

Solved in 10 iterations and 0.01 seconds
Optimal objective  2.877500000e+05
Optimize a model with 13 rows, 12 columns and 45 nonzeros
Coefficient statistics:
  Matrix range     [5e-01, 1e+01]
  Objective range  [1e+00, 4e+01]
  Bounds range     [0e+00, 0e+00]
  RHS range        [1e+03, 1e+04]
Presolve removed 4 rows and 3 columns
Presolve time: 0.01s
Presolved: 9 rows, 9 columns, 33 nonzeros

Iteration    Objective       Primal Inf.    Dual Inf.      Time
       0    4.0320000e+05   1.781250e+03   0.000000e+00      0s
      10    2.8775000e+05   0.000000e+00   0.000000e+00      0s

Solved in 10 iterations and 0.01 seconds
Optimal objective  2.877500000e+05
Optimize a model with 13 rows, 12 columns and 45 nonzeros
Coefficient statistics:
  Matrix range     [5e-01, 1e+01]
  Objective range  [1e+00, 4e+01]
  Bounds range     [0e+00, 0e+00]
  RHS range        [1e+03, 1e+04]
Presolve removed 4 rows and 3 columns
Presolve time: 0.01s
Presolved: 9 rows, 9 columns, 33 nonzeros

Iteration    Objective       Primal Inf.    Dual Inf.      Time
       0    4.0320000e+05   1.781250e+03   0.000000e+00      0s
      10    2.8775000e+05   0.000000e+00   0.000000e+00      0s

Solved in 10 iterations and 0.01 seconds
Optimal objective  2.877500000e+05
Optimize a model with 13 rows, 12 columns and 45 nonzeros
Coefficient statistics:
  Matrix range     [5e-01, 1e+01]
  Objective range  [1e+00, 4e+01]
  Bounds range     [0e+00, 0e+00]
  RHS range        [1e+03, 1e+04]
Presolve removed 4 rows and 3 columns
Presolve time: 0.01s
Presolved: 9 rows, 9 columns, 33 nonzeros

Iteration    Objective       Primal Inf.    Dual Inf.      Time
       0    4.0320000e+05   1.781250e+03   0.000000e+00      0s
      10    2.8775000e+05   0.000000e+00   0.000000e+00      0s

Solved in 10 iterations and 0.01 seconds
Optimal objective  2.877500000e+05
Optimize a model with 13 rows, 12 columns and 45 nonzeros
Coefficient statistics:
  Matrix range     [5e-01, 1e+01]
  Objective range  [1e+00, 4e+01]
  Bounds range     [0e+00, 0e+00]
  RHS range        [1e+03, 1e+04]
Presolve removed 4 rows and 3 columns
Presolve time: 0.01s
Presolved: 9 rows, 9 columns, 33 nonzeros

Iteration    Objective       Primal Inf.    Dual Inf.      Time
       0    4.0320000e+05   1.781250e+03   0.000000e+00      0s
      10    2.8775000e+05   0.000000e+00   0.000000e+00      0s

Solved in 10 iterations and 0.01 seconds
Optimal objective  2.877500000e+05
Optimize a model with 13 rows, 12 columns and 45 nonzeros
Coefficient statistics:
  Matrix range     [5e-01, 1e+01]
  Objective range  [1e+00, 4e+01]
  Bounds range     [0e+00, 0e+00]
  RHS range        [1e+03, 1e+04]
Presolve removed 4 rows and 3 columns
Presolve time: 0.00s
Presolved: 9 rows, 9 columns, 33 nonzeros

Iteration    Objective       Primal Inf.    Dual Inf.      Time
       0    4.0320000e+05   1.781250e+03   0.000000e+00      0s
      10    2.8775000e+05   0.000000e+00   0.000000e+00      0s

Solved in 10 iterations and 0.01 seconds
Optimal objective  2.877500000e+05
Optimize a model with 13 rows, 12 columns and 45 nonzeros
Coefficient statistics:
  Matrix range     [5e-01, 1e+01]
  Objective range  [1e+00, 4e+01]
  Bounds range     [0e+00, 0e+00]
  RHS range        [1e+03, 1e+04]
Presolve removed 4 rows and 3 columns
Presolve time: 0.01s
Presolved: 9 rows, 9 columns, 33 nonzeros

Iteration    Objective       Primal Inf.    Dual Inf.      Time
       0    4.0320000e+05   1.781250e+03   0.000000e+00      0s
      10    2.8775000e+05   0.000000e+00   0.000000e+00      0s

Solved in 10 iterations and 0.01 seconds
Optimal objective  2.877500000e+05
Optimize a model with 6643 rows, 6642 columns and 19764 nonzeros
Variable types: 0 continuous, 6642 integer (6642 binary)
Coefficient statistics:
  Matrix range     [1e+00, 1e+00]
  Objective range  [1e-02, 6e-01]
  Bounds range     [1e+00, 1e+00]
  RHS range        [1e+00, 5e+00]
Presolve time: 0.04s
Presolved: 6643 rows, 6642 columns, 19764 nonzeros
Variable types: 0 continuous, 6642 integer (6642 binary)
Found heuristic solution: objective 5.9519648

Root relaxation: objective 4.486160e+00, 1761 iterations, 0.07 seconds

    Nodes    |    Current Node    |     Objective Bounds      |     Work
 Expl Unexpl |  Obj  Depth IntInf | Incumbent    BestBd   Gap | It/Node Time

*    0     0               0       4.4861600    4.48616  0.00%     -    0s

Explored 0 nodes (1761 simplex iterations) in 0.14 seconds
Thread count was 4 (of 4 available processors)

Solution count 2: 4.48616 5.95196 

Optimal solution found (tolerance 1.00e-04)
Best objective 4.486160028149e+00, best bound 4.486160028149e+00, gap 0.0000%
Optimize a model with 6643 rows, 6642 columns and 19764 nonzeros
Variable types: 0 continuous, 6642 integer (6642 binary)
Coefficient statistics:
  Matrix range     [1e+00, 1e+00]
  Objective range  [1e-02, 6e-01]
  Bounds range     [1e+00, 1e+00]
  RHS range        [1e+00, 5e+00]
Presolve time: 0.04s
Presolved: 6643 rows, 6642 columns, 19764 nonzeros
Variable types: 0 continuous, 6642 integer (6642 binary)
Found heuristic solution: objective 5.9519648

Root relaxation: objective 4.486160e+00, 1761 iterations, 0.07 seconds

    Nodes    |    Current Node    |     Objective Bounds      |     Work
 Expl Unexpl |  Obj  Depth IntInf | Incumbent    BestBd   Gap | It/Node Time

*    0     0               0       4.4861600    4.48616  0.00%     -    0s

Explored 0 nodes (1761 simplex iterations) in 0.14 seconds
Thread count was 4 (of 4 available processors)

Solution count 2: 4.48616 5.95196 

Optimal solution found (tolerance 1.00e-04)
Best objective 4.486160028149e+00, best bound 4.486160028149e+00, gap 0.0000%
Optimize a model with 6643 rows, 6642 columns and 19764 nonzeros
Variable types: 0 continuous, 6642 integer (6642 binary)
Coefficient statistics:
  Matrix range     [1e+00, 1e+00]
  Objective range  [1e-02, 6e-01]
  Bounds range     [1e+00, 1e+00]
  RHS range        [1e+00, 5e+00]
Presolve time: 0.03s
Presolved: 6643 rows, 6642 columns, 19764 nonzeros
Variable types: 0 continuous, 6642 integer (6642 binary)
Found heuristic solution: objective 5.9519648

Root relaxation: objective 4.486160e+00, 1761 iterations, 0.06 seconds

    Nodes    |    Current Node    |     Objective Bounds      |     Work
 Expl Unexpl |  Obj  Depth IntInf | Incumbent    BestBd   Gap | It/Node Time

*    0     0               0       4.4861600    4.48616  0.00%     -    0s

Explored 0 nodes (1761 simplex iterations) in 0.13 seconds
Thread count was 4 (of 4 available processors)

Solution count 2: 4.48616 5.95196 

Optimal solution found (tolerance 1.00e-04)
Best objective 4.486160028149e+00, best bound 4.486160028149e+00, gap 0.0000%
Optimize a model with 6643 rows, 6642 columns and 19764 nonzeros
Variable types: 0 continuous, 6642 integer (6642 binary)
Coefficient statistics:
  Matrix range     [1e+00, 1e+00]
  Objective range  [1e-02, 6e-01]
  Bounds range     [1e+00, 1e+00]
  RHS range        [1e+00, 5e+00]
Presolve time: 0.04s
Presolved: 6643 rows, 6642 columns, 19764 nonzeros
Variable types: 0 continuous, 6642 integer (6642 binary)
Found heuristic solution: objective 5.9519648

Root relaxation: objective 4.486160e+00, 1761 iterations, 0.08 seconds

    Nodes    |    Current Node    |     Objective Bounds      |     Work
 Expl Unexpl |  Obj  Depth IntInf | Incumbent    BestBd   Gap | It/Node Time

*    0     0               0       4.4861600    4.48616  0.00%     -    0s

Explored 0 nodes (1761 simplex iterations) in 0.16 seconds
Thread count was 4 (of 4 available processors)

Solution count 2: 4.48616 5.95196 

Optimal solution found (tolerance 1.00e-04)
Best objective 4.486160028149e+00, best bound 4.486160028149e+00, gap 0.0000%
Optimize a model with 6643 rows, 6642 columns and 19764 nonzeros
Variable types: 0 continuous, 6642 integer (6642 binary)
Coefficient statistics:
  Matrix range     [1e+00, 1e+00]
  Objective range  [9e-05, 2e-01]
  Bounds range     [1e+00, 1e+00]
  RHS range        [1e+00, 5e+00]
Presolve time: 0.03s
Presolved: 6643 rows, 6642 columns, 19764 nonzeros
Variable types: 0 continuous, 6642 integer (6642 binary)
Found heuristic solution: objective 0.3435032

Root relaxation: objective 1.934919e-01, 1933 iterations, 0.07 seconds

    Nodes    |    Current Node    |     Objective Bounds      |     Work
 Expl Unexpl |  Obj  Depth IntInf | Incumbent    BestBd   Gap | It/Node Time

*    0     0               0       0.1934919    0.19349  0.00%     -    0s

Explored 0 nodes (1933 simplex iterations) in 0.14 seconds
Thread count was 4 (of 4 available processors)

Solution count 2: 0.193492 0.343503 

Optimal solution found (tolerance 1.00e-04)
Best objective 1.934919001101e-01, best bound 1.934919001101e-01, gap 0.0000%
Optimize a model with 6643 rows, 6642 columns and 19764 nonzeros
Variable types: 0 continuous, 6642 integer (6642 binary)
Coefficient statistics:
  Matrix range     [1e+00, 1e+00]
  Objective range  [5e-01, 3e+01]
  Bounds range     [1e+00, 1e+00]
  RHS range        [1e+00, 5e+00]
Presolve time: 0.03s
Presolved: 6643 rows, 6642 columns, 19764 nonzeros
Variable types: 0 continuous, 6642 integer (6642 binary)
Found heuristic solution: objective 272.5372117

Root relaxation: objective 2.108943e+02, 1659 iterations, 0.06 seconds

    Nodes    |    Current Node    |     Objective Bounds      |     Work
 Expl Unexpl |  Obj  Depth IntInf | Incumbent    BestBd   Gap | It/Node Time

*    0     0               0     210.8943133  210.89431  0.00%     -    0s

Explored 0 nodes (1659 simplex iterations) in 0.13 seconds
Thread count was 4 (of 4 available processors)

Solution count 2: 210.894 272.537 

Optimal solution found (tolerance 1.00e-04)
Best objective 2.108943132944e+02, best bound 2.108943132944e+02, gap 0.0000%

Gurobi 8.1.1 (win64, Python) logging started 06/17/19 12:14:58

Academic license - for non-commercial use only
Warning: Gurobi version mismatch between Python 8.1.0 and C library 8.1.1
Optimize a model with 15475 rows, 7680 columns and 52341 nonzeros
Variable types: 1920 continuous, 5760 integer (5760 binary)
Coefficient statistics:
  Matrix range     [1e+00, 4e+02]
  Objective range  [2e+01, 5e+03]
  Bounds range     [1e+00, 1e+00]
  RHS range        [1e+00, 1e+03]
Presolve removed 4563 rows and 1578 columns
Presolve time: 0.24s
Presolved: 10912 rows, 6102 columns, 44785 nonzeros
Variable types: 1918 continuous, 4184 integer (4184 binary)
Found heuristic solution: objective 1.422235e+07

Root relaxation: objective 1.418042e+07, 2105 iterations, 0.10 seconds

    Nodes    |    Current Node    |     Objective Bounds      |     Work
 Expl Unexpl |  Obj  Depth IntInf | Incumbent    BestBd   Gap | It/Node Time

     0     0 1.4180e+07    0  413 1.4222e+07 1.4180e+07  0.29%     -    0s
H    0     0                    1.421973e+07 1.4180e+07  0.28%     -    0s
     0     0 1.4212e+07    0   73 1.4220e+07 1.4212e+07  0.05%     -    1s
H    0     0                    1.421817e+07 1.4212e+07  0.04%     -    1s
     0     0 1.4212e+07    0   55 1.4218e+07 1.4212e+07  0.04%     -    1s
*    0     0               0    1.421308e+07 1.4213e+07  0.00%     -    1s

Cutting planes:
  Gomory: 3
  Cover: 227
  Implied bound: 242
  Clique: 107
  MIR: 49
  StrongCG: 17
  Flow cover: 105
  GUB cover: 2

Explored 1 nodes (2659 simplex iterations) in 1.25 seconds
Thread count was 4 (of 4 available processors)

Solution count 4: 1.42131e+07 1.42182e+07 1.42197e+07 1.42224e+07 

Optimal solution found (tolerance 1.00e-04)
Best objective 1.421308206390e+07, best bound 1.421308206390e+07, gap 0.0000%
Optimize a model with 15475 rows, 7680 columns and 52341 nonzeros
Variable types: 1920 continuous, 5760 integer (5760 binary)
Coefficient statistics:
  Matrix range     [1e+00, 4e+02]
  Objective range  [2e+01, 5e+03]
  Bounds range     [1e+00, 1e+00]
  RHS range        [1e+00, 1e+03]
Presolve removed 4563 rows and 1578 columns
Presolve time: 0.11s
Presolved: 10912 rows, 6102 columns, 44785 nonzeros
Variable types: 1918 continuous, 4184 integer (4184 binary)
Found heuristic solution: objective 1.422235e+07

Root relaxation: objective 1.418042e+07, 2105 iterations, 0.02 seconds

    Nodes    |    Current Node    |     Objective Bounds      |     Work
 Expl Unexpl |  Obj  Depth IntInf | Incumbent    BestBd   Gap | It/Node Time

     0     0 1.4180e+07    0  413 1.4222e+07 1.4180e+07  0.29%     -    0s
H    0     0                    1.421973e+07 1.4180e+07  0.28%     -    0s
     0     0 1.4212e+07    0   73 1.4220e+07 1.4212e+07  0.05%     -    0s
H    0     0                    1.421817e+07 1.4212e+07  0.04%     -    0s
     0     0 1.4212e+07    0   55 1.4218e+07 1.4212e+07  0.04%     -    0s
*    0     0               0    1.421308e+07 1.4213e+07  0.00%     -    0s

Cutting planes:
  Gomory: 3
  Cover: 227
  Implied bound: 242
  Clique: 107
  MIR: 49
  StrongCG: 17
  Flow cover: 105
  GUB cover: 2

Explored 1 nodes (2659 simplex iterations) in 0.52 seconds
Thread count was 4 (of 4 available processors)

Solution count 4: 1.42131e+07 1.42182e+07 1.42197e+07 1.42224e+07 

Optimal solution found (tolerance 1.00e-04)
Best objective 1.421308206390e+07, best bound 1.421308206390e+07, gap 0.0000%
Optimize a model with 15475 rows, 7680 columns and 52341 nonzeros
Variable types: 1920 continuous, 5760 integer (5760 binary)
Coefficient statistics:
  Matrix range     [1e+00, 4e+02]
  Objective range  [2e+01, 5e+03]
  Bounds range     [1e+00, 1e+00]
  RHS range        [1e+00, 1e+03]
Presolve removed 4563 rows and 1578 columns
Presolve time: 0.09s
Presolved: 10912 rows, 6102 columns, 44785 nonzeros
Variable types: 1918 continuous, 4184 integer (4184 binary)
Found heuristic solution: objective 1.422235e+07

Root relaxation: objective 1.418042e+07, 2105 iterations, 0.03 seconds

    Nodes    |    Current Node    |     Objective Bounds      |     Work
 Expl Unexpl |  Obj  Depth IntInf | Incumbent    BestBd   Gap | It/Node Time

     0     0 1.4180e+07    0  413 1.4222e+07 1.4180e+07  0.29%     -    0s
H    0     0                    1.421973e+07 1.4180e+07  0.28%     -    0s
     0     0 1.4212e+07    0   73 1.4220e+07 1.4212e+07  0.05%     -    0s
H    0     0                    1.421817e+07 1.4212e+07  0.04%     -    0s
     0     0 1.4212e+07    0   55 1.4218e+07 1.4212e+07  0.04%     -    0s
*    0     0               0    1.421308e+07 1.4213e+07  0.00%     -    0s

Cutting planes:
  Gomory: 3
  Cover: 227
  Implied bound: 242
  Clique: 107
  MIR: 49
  StrongCG: 17
  Flow cover: 105
  GUB cover: 2

Explored 1 nodes (2659 simplex iterations) in 0.55 seconds
Thread count was 4 (of 4 available processors)

Solution count 4: 1.42131e+07 1.42182e+07 1.42197e+07 1.42224e+07 

Optimal solution found (tolerance 1.00e-04)
Best objective 1.421308206390e+07, best bound 1.421308206390e+07, gap 0.0000%
